(set-option :produce-models true)
(set-logic AUFLIRA)
; ### Variable declarations ###
(declare-const i_0_0 Real)
(declare-const i_0_1 Real)
(declare-const i_0_2 Real)
(declare-const i_0_3 Real)
(declare-const A_x_0_0 Real)
(declare-const A_x_0_1 Real)
(declare-const A_x_0_2 Real)
(declare-const A_x_0_3 Real)
(declare-const A_d_0_0 Int)
(declare-const A_d_0_1 Int)
(declare-const A_d_0_2 Int)
(declare-const A_d_0_3 Int)
(declare-const A_o_0_0 Real)
(declare-const A_o_0_1 Real)
(declare-const A_o_0_2 Real)
(declare-const A_o_0_3 Real)
(declare-const A_x_1_0 Real)
(declare-const A_x_1_1 Real)
(declare-const A_x_1_2 Real)
(declare-const A_x_1_3 Real)
(declare-const A_d_1_0 Int)
(declare-const A_d_1_1 Int)
(declare-const A_d_1_2 Int)
(declare-const A_d_1_3 Int)
(declare-const A_o_1_0 Real)
(declare-const A_o_1_1 Real)
(declare-const A_o_1_2 Real)
(declare-const A_o_1_3 Real)
(declare-const A_x_2_0 Real)
(declare-const A_x_2_1 Real)
(declare-const A_x_2_2 Real)
(declare-const A_A_o_0_3_0_d_3_0 Int)
(declare-const A_A_o_1_3_0_d_3_0 Int)
(declare-const A_x_3_0 Real)
(declare-const A_x_3_1 Real)
(declare-const A_x_3_2 Real)
(declare-const A_o_0_3_0 Real)
(declare-const A_o_1_3_0 Real)
(declare-const A_o_3_0 Int)
(declare-const A_o_3_1 Int)
(declare-const A_o_3_2 Int)
(declare-const B_x_0_0 Real)
(declare-const B_x_0_1 Real)
(declare-const B_x_0_2 Real)
(declare-const B_x_0_3 Real)
(declare-const B_d_0_0 Int)
(declare-const B_d_0_1 Int)
(declare-const B_d_0_2 Int)
(declare-const B_d_0_3 Int)
(declare-const B_o_0_0 Real)
(declare-const B_o_0_1 Real)
(declare-const B_o_0_2 Real)
(declare-const B_o_0_3 Real)
(declare-const B_x_1_0 Real)
(declare-const B_x_1_1 Real)
(declare-const B_x_1_2 Real)
(declare-const B_x_1_3 Real)
(declare-const B_d_1_0 Int)
(declare-const B_d_1_1 Int)
(declare-const B_d_1_2 Int)
(declare-const B_d_1_3 Int)
(declare-const B_o_1_0 Real)
(declare-const B_o_1_1 Real)
(declare-const B_o_1_2 Real)
(declare-const B_o_1_3 Real)
(declare-const B_x_2_0 Real)
(declare-const B_x_2_1 Real)
(declare-const B_x_2_2 Real)
(declare-const B_B_o_0_3_0_d_3_0 Int)
(declare-const B_B_o_1_3_0_d_3_0 Int)
(declare-const B_x_3_0 Real)
(declare-const B_x_3_1 Real)
(declare-const B_x_3_2 Real)
(declare-const B_o_0_3_0 Real)
(declare-const B_o_1_3_0 Real)
(declare-const B_o_3_0 Int)
(declare-const B_o_3_1 Int)
(declare-const B_o_3_2 Int)
(declare-const E_x_0_0 Real)
(declare-const E_x_0_1 Real)
(declare-const E_x_0_2 Real)
(declare-const E_dg_0_0 Int)
(declare-const E_dl_0_0 Int)
(declare-const E_dg_0_1 Int)
(declare-const E_dl_0_1 Int)
(declare-const E_dg_0_2 Int)
(declare-const E_dl_0_2 Int)
; ### Variable bounds ###
(assert (<= i_0_0 5))
(assert (<= 1 i_0_0))
(assert (<= i_0_1 5))
(assert (<= 1 i_0_1))
(assert (<= i_0_2 5))
(assert (<= 1 i_0_2))
(assert (<= i_0_3 5))
(assert (<= 1 i_0_3))
(assert (<= A_d_0_0 1))
(assert (<= 0 A_d_0_0))
(assert (<= A_d_0_1 1))
(assert (<= 0 A_d_0_1))
(assert (<= A_d_0_2 1))
(assert (<= 0 A_d_0_2))
(assert (<= A_d_0_3 1))
(assert (<= 0 A_d_0_3))
(assert (<= A_d_1_0 1))
(assert (<= 0 A_d_1_0))
(assert (<= A_d_1_1 1))
(assert (<= 0 A_d_1_1))
(assert (<= A_d_1_2 1))
(assert (<= 0 A_d_1_2))
(assert (<= A_d_1_3 1))
(assert (<= 0 A_d_1_3))
(assert (<= A_A_o_0_3_0_d_3_0 1))
(assert (<= 0 A_A_o_0_3_0_d_3_0))
(assert (<= A_A_o_1_3_0_d_3_0 1))
(assert (<= 0 A_A_o_1_3_0_d_3_0))
(assert (<= B_d_0_0 1))
(assert (<= 1 B_d_0_0))
(assert (<= B_d_0_1 1))
(assert (<= 0 B_d_0_1))
(assert (<= B_d_0_2 1))
(assert (<= 1 B_d_0_2))
(assert (<= B_d_0_3 1))
(assert (<= 0 B_d_0_3))
(assert (<= B_d_1_0 1))
(assert (<= 0 B_d_1_0))
(assert (<= B_d_1_1 1))
(assert (<= 0 B_d_1_1))
(assert (<= B_d_1_2 1))
(assert (<= 0 B_d_1_2))
(assert (<= B_d_1_3 1))
(assert (<= 0 B_d_1_3))
(assert (<= B_B_o_0_3_0_d_3_0 1))
(assert (<= 0 B_B_o_0_3_0_d_3_0))
(assert (<= B_B_o_1_3_0_d_3_0 1))
(assert (<= 0 B_B_o_1_3_0_d_3_0))
(assert (<= E_dg_0_0 1))
(assert (<= 0 E_dg_0_0))
(assert (<= E_dl_0_0 1))
(assert (<= 0 E_dl_0_0))
(assert (<= E_dg_0_1 1))
(assert (<= 0 E_dg_0_1))
(assert (<= E_dl_0_1 1))
(assert (<= 0 E_dl_0_1))
(assert (<= E_dg_0_2 1))
(assert (<= 0 E_dg_0_2))
(assert (<= E_dl_0_2 1))
(assert (<= 0 E_dl_0_2))
; ### Constraints ###
(assert (= A_x_0_0 (+ (* (- 0.6379809) i_0_0) (* 0.07340504 i_0_1) (* (- 0.21287224) i_0_2) (* 0.46451607 i_0_3) (- 0.21016687))))
(assert (= A_x_0_1 (+ (* (- 0.7547593) i_0_0) (* 0.15725836 i_0_1) (* 0.66521823 i_0_2) (* 0.31605786 i_0_3) 0.085867114)))
(assert (= A_x_0_2 (+ (* (- 0.048892193) i_0_0) (* (- 0.35396737) i_0_1) (* 0.122523874 i_0_2) (* 0.57615966 i_0_3) 0.23653667)))
(assert (= A_x_0_3 (+ (* 0.42926562 i_0_0) (* 0.9992404 i_0_1) (* (- 0.37910253) i_0_2) (* 0.016789414 i_0_3) 0.10610554)))
(assert (<= 0 A_o_0_0))
(assert (<= A_x_0_0 A_o_0_0))
(assert (<= (+ A_x_0_0 (- (* 3.9265113323926926 A_d_0_0))) 0))
(assert (<= 0 (+ A_x_0_0 3.9265113323926926 (- (* 3.9265113323926926 A_d_0_0)))))
(assert (<= A_o_0_0 (+ A_x_0_0 3.9265113323926926 (- (* 3.9265113323926926 A_d_0_0)))))
(assert (<= A_o_0_0 (* 3.9265113323926926 A_d_0_0)))
(assert (<= 0 A_o_0_1))
(assert (<= A_x_0_1 A_o_0_1))
(assert (<= (+ A_x_0_1 (- (* 5.023780085146427 A_d_0_1))) 0))
(assert (<= 0 (+ A_x_0_1 5.023780085146427 (- (* 5.023780085146427 A_d_0_1)))))
(assert (<= A_o_0_1 (+ A_x_0_1 5.023780085146427 (- (* 5.023780085146427 A_d_0_1)))))
(assert (<= A_o_0_1 (* 5.023780085146427 A_d_0_1)))
(assert (<= 0 A_o_0_2))
(assert (<= A_x_0_2 A_o_0_2))
(assert (<= (+ A_x_0_2 (- (* 3.327094756066799 A_d_0_2))) 0))
(assert (<= 0 (+ A_x_0_2 3.327094756066799 (- (* 3.327094756066799 A_d_0_2)))))
(assert (<= A_o_0_2 (+ A_x_0_2 3.327094756066799 (- (* 3.327094756066799 A_d_0_2)))))
(assert (<= A_o_0_2 (* 3.327094756066799 A_d_0_2)))
(assert (<= 0 A_o_0_3))
(assert (<= A_x_0_3 A_o_0_3))
(assert (<= (+ A_x_0_3 (- (* 6.953480169177055 A_d_0_3))) 0))
(assert (<= 0 (+ A_x_0_3 6.953480169177055 (- (* 6.953480169177055 A_d_0_3)))))
(assert (<= A_o_0_3 (+ A_x_0_3 6.953480169177055 (- (* 6.953480169177055 A_d_0_3)))))
(assert (<= A_o_0_3 (* 6.953480169177055 A_d_0_3)))
(assert (= A_x_1_0 (+ (* 0.62615985 A_o_0_0) (* 0.039529245 A_o_0_1) (* (- 0.5513049) A_o_0_2) (* 0.6923107 A_o_0_3) 0.022550788)))
(assert (= A_x_1_1 (+ (* (- 0.12951012) A_o_0_0) (* 0.22551966 A_o_0_1) (* 0.2794804 A_o_0_2) (* (- 0.018626418) A_o_0_3) (- 0.18887858))))
(assert (= A_x_1_2 (+ (* (- 0.25555655) A_o_0_0) (* 1.0147316 A_o_0_1) (* 0.92903113 A_o_0_2) (* (- 0.23300982) A_o_0_3) (- 0.103333026))))
(assert (= A_x_1_3 (+ (* (- 0.40417266) A_o_0_0) (* (- 0.76209813) A_o_0_1) (* (- 0.6888845) A_o_0_2) (* 0.59146595 A_o_0_3) 0.1664231)))
(assert (<= 0 A_o_1_0))
(assert (<= A_x_1_0 A_o_1_0))
(assert (<= (+ A_x_1_0 (- (* 6.64976133620492 A_d_1_0))) 0))
(assert (<= 0 (+ A_x_1_0 6.64976133620492 (- (* 6.64976133620492 A_d_1_0)))))
(assert (<= A_o_1_0 (+ A_x_1_0 6.64976133620492 (- (* 6.64976133620492 A_d_1_0)))))
(assert (<= A_o_1_0 (* 6.64976133620492 A_d_1_0)))
(assert (<= 0 A_o_1_1))
(assert (<= A_x_1_1 A_o_1_1))
(assert (<= (+ A_x_1_1 (- (* 2.3888728668319845 A_d_1_1))) 0))
(assert (<= 0 (+ A_x_1_1 2.3888728668319845 (- (* 2.3888728668319845 A_d_1_1)))))
(assert (<= A_o_1_1 (+ A_x_1_1 2.3888728668319845 (- (* 2.3888728668319845 A_d_1_1)))))
(assert (<= A_o_1_1 (* 2.3888728668319845 A_d_1_1)))
(assert (<= 0 A_o_1_2))
(assert (<= A_x_1_2 A_o_1_2))
(assert (<= (+ A_x_1_2 (- (* 9.169057319192143 A_d_1_2))) 0))
(assert (<= 0 (+ A_x_1_2 9.169057319192143 (- (* 9.169057319192143 A_d_1_2)))))
(assert (<= A_o_1_2 (+ A_x_1_2 9.169057319192143 (- (* 9.169057319192143 A_d_1_2)))))
(assert (<= A_o_1_2 (* 9.169057319192143 A_d_1_2)))
(assert (<= 0 A_o_1_3))
(assert (<= A_x_1_3 A_o_1_3))
(assert (<= (+ A_x_1_3 (- (* 8.552407374092928 A_d_1_3))) 0))
(assert (<= 0 (+ A_x_1_3 8.552407374092928 (- (* 8.552407374092928 A_d_1_3)))))
(assert (<= A_o_1_3 (+ A_x_1_3 8.552407374092928 (- (* 8.552407374092928 A_d_1_3)))))
(assert (<= A_o_1_3 (* 8.552407374092928 A_d_1_3)))
(assert (= A_x_2_0 (+ (* 0.9111556 A_o_1_0) (* (- 0.5999428) A_o_1_1) (* (- 0.724907) A_o_1_2) (* 1.2218964 A_o_1_3) 0.105831355)))
(assert (= A_x_2_1 (+ (* 0.5837674 A_o_1_0) (* 0.55900586 A_o_1_1) (* (- 0.22997126) A_o_1_2) (* (- 0.35976943) A_o_1_3) (- 0.16196148))))
(assert (= A_x_2_2 (+ (* (- 0.16923249) A_o_1_0) (* 0.49686074 A_o_1_1) (* 0.8652662 A_o_1_2) (* 0.08620654 A_o_1_3) 0.07103808)))
(assert (<= A_x_2_0 A_o_0_3_0))
(assert (<= A_x_2_1 A_o_0_3_0))
(assert (<= A_o_0_3_0 (+ A_x_2_0 (* 21.61151667050914 A_A_o_0_3_0_d_3_0))))
(assert (<= A_o_0_3_0 (+ A_x_2_1 21.61151667050914 (- (* 21.61151667050914 A_A_o_0_3_0_d_3_0)))))
(assert (<= A_o_0_3_0 A_o_1_3_0))
(assert (<= A_x_2_2 A_o_1_3_0))
(assert (<= A_o_1_3_0 (+ A_o_0_3_0 (* 21.61151667050914 A_A_o_1_3_0_d_3_0))))
(assert (<= A_o_1_3_0 (+ A_x_2_2 21.61151667050914 (- (* 21.61151667050914 A_A_o_1_3_0_d_3_0)))))
(assert (= A_x_3_0 (+ A_x_2_0 (- A_o_1_3_0))))
(assert (= A_x_3_1 (+ A_x_2_1 (- A_o_1_3_0))))
(assert (= A_x_3_2 (+ A_x_2_2 (- A_o_1_3_0))))
(assert (< A_x_3_0 (* 28.909205246439342 A_o_3_0)))
(assert (<= (+ (- 42.11376348249317) (- (* (- 42.11376348249317) A_o_3_0))) A_x_3_0))
(assert (< A_x_3_1 (* 16.122752667370214 A_o_3_1)))
(assert (<= (+ (- 30.435635957144743) (- (* (- 30.435635957144743) A_o_3_1))) A_x_3_1))
(assert (< A_x_3_2 (* 18.006660104140558 A_o_3_2)))
(assert (<= (+ (- 28.90920523643934) (- (* (- 28.90920523643934) A_o_3_2))) A_x_3_2))
(assert (= B_x_0_0 (+ (* 1 i_0_0) (* 0.07340504 i_0_1) (* (- 0.21287224) i_0_2) (* 0.46451607 i_0_3) (- 0.21016687))))
(assert (= B_x_0_1 (+ (* (- 0.7547593) i_0_0) (* 1 i_0_1) (* 0.66521823 i_0_2) (* 0.31605786 i_0_3) 0.085867114)))
(assert (= B_x_0_2 (+ (* 1 i_0_0) (* (- 0.35396737) i_0_1) (* 0.122523874 i_0_2) (* 0.57615966 i_0_3) 0.23653667)))
(assert (= B_x_0_3 (+ (* 0.42926562 i_0_0) (* 1 i_0_1) (* (- 0.37910253) i_0_2) (* 0.016789414 i_0_3) 0.10610554)))
(assert (<= 0 B_o_0_0))
(assert (<= B_x_0_0 B_o_0_0))
(assert (<= (+ B_x_0_0 (- (* 7.2665664702653885 B_d_0_0))) 0))
(assert (<= 0 (+ B_x_0_0 7.2665664702653885 (- (* 7.2665664702653885 B_d_0_0)))))
(assert (<= B_o_0_0 (+ B_x_0_0 7.2665664702653885 (- (* 7.2665664702653885 B_d_0_0)))))
(assert (<= B_o_0_0 (* 7.2665664702653885 B_d_0_0)))
(assert (<= 0 B_o_0_1))
(assert (<= B_x_0_1 B_o_0_1))
(assert (<= (+ B_x_0_1 (- (* 9.237488277256489 B_d_0_1))) 0))
(assert (<= 0 (+ B_x_0_1 9.237488277256489 (- (* 9.237488277256489 B_d_0_1)))))
(assert (<= B_o_0_1 (+ B_x_0_1 9.237488277256489 (- (* 9.237488277256489 B_d_0_1)))))
(assert (<= B_o_0_1 (* 9.237488277256489 B_d_0_1)))
(assert (<= 0 B_o_0_2))
(assert (<= B_x_0_2 B_o_0_2))
(assert (<= (+ B_x_0_2 (- (* 8.375986948609352 B_d_0_2))) 0))
(assert (<= 0 (+ B_x_0_2 8.375986948609352 (- (* 8.375986948609352 B_d_0_2)))))
(assert (<= B_o_0_2 (+ B_x_0_2 8.375986948609352 (- (* 8.375986948609352 B_d_0_2)))))
(assert (<= B_o_0_2 (* 8.375986948609352 B_d_0_2)))
(assert (<= 0 B_o_0_3))
(assert (<= B_x_0_3 B_o_0_3))
(assert (<= (+ B_x_0_3 (- (* 6.957278177142143 B_d_0_3))) 0))
(assert (<= 0 (+ B_x_0_3 6.957278177142143 (- (* 6.957278177142143 B_d_0_3)))))
(assert (<= B_o_0_3 (+ B_x_0_3 6.957278177142143 (- (* 6.957278177142143 B_d_0_3)))))
(assert (<= B_o_0_3 (* 6.957278177142143 B_d_0_3)))
(assert (= B_x_1_0 (+ (* 0.62615985 B_o_0_0) (* 0.039529245 B_o_0_1) (* (- 0.5513049) B_o_0_2) (* 0.6923107 B_o_0_3) 0.022550788)))
(assert (= B_x_1_1 (+ (* (- 0.12951012) B_o_0_0) (* 0.22551966 B_o_0_1) (* 0.2794804 B_o_0_2) (* (- 0.018626418) B_o_0_3) (- 0.18887858))))
(assert (= B_x_1_2 (+ (* (- 0.25555655) B_o_0_0) (* 1.0147316 B_o_0_1) (* 0.92903113 B_o_0_2) (* (- 0.23300982) B_o_0_3) (- 0.103333026))))
(assert (= B_x_1_3 (+ (* (- 0.40417266) B_o_0_0) (* (- 0.76209813) B_o_0_1) (* (- 0.6888845) B_o_0_2) (* 0.59146595 B_o_0_3) 0.1664231)))
(assert (<= 0 B_o_1_0))
(assert (<= B_x_1_0 B_o_1_0))
(assert (<= (+ B_x_1_0 (- (* 9.663155287885978 B_d_1_0))) 0))
(assert (<= 0 (+ B_x_1_0 9.663155287885978 (- (* 9.663155287885978 B_d_1_0)))))
(assert (<= B_o_1_0 (+ B_x_1_0 9.663155287885978 (- (* 9.663155287885978 B_d_1_0)))))
(assert (<= B_o_1_0 (* 9.663155287885978 B_d_1_0)))
(assert (<= 0 B_o_1_1))
(assert (<= B_x_1_1 B_o_1_1))
(assert (<= (+ B_x_1_1 (- (* 4.20756412413791 B_d_1_1))) 0))
(assert (<= 0 (+ B_x_1_1 4.20756412413791 (- (* 4.20756412413791 B_d_1_1)))))
(assert (<= B_o_1_1 (+ B_x_1_1 4.20756412413791 (- (* 4.20756412413791 B_d_1_1)))))
(assert (<= B_o_1_1 (* 4.20756412413791 B_d_1_1)))
(assert (<= 0 B_o_1_2))
(assert (<= B_x_1_2 B_o_1_2))
(assert (<= (+ B_x_1_2 (- (* 17.064483883397166 B_d_1_2))) 0))
(assert (<= 0 (+ B_x_1_2 17.064483883397166 (- (* 17.064483883397166 B_d_1_2)))))
(assert (<= B_o_1_2 (+ B_x_1_2 17.064483883397166 (- (* 17.064483883397166 B_d_1_2)))))
(assert (<= B_o_1_2 (* 17.064483883397166 B_d_1_2)))
(assert (<= 0 B_o_1_3))
(assert (<= B_x_1_3 B_o_1_3))
(assert (<= (+ B_x_1_3 (- (* 15.783565577549274 B_d_1_3))) 0))
(assert (<= 0 (+ B_x_1_3 15.783565577549274 (- (* 15.783565577549274 B_d_1_3)))))
(assert (<= B_o_1_3 (+ B_x_1_3 15.783565577549274 (- (* 15.783565577549274 B_d_1_3)))))
(assert (<= B_o_1_3 (* 15.783565577549274 B_d_1_3)))
(assert (= B_x_2_0 (+ (* 0.9111556 B_o_1_0) (* (- 0.5999428) B_o_1_1) (* (- 0.724907) B_o_1_2) (* 1.2218964 B_o_1_3) 0.105831355)))
(assert (= B_x_2_1 (+ (* 0.5837674 B_o_1_0) (* 0.55900586 B_o_1_1) (* (- 0.22997126) B_o_1_2) (* (- 0.35976943) B_o_1_3) (- 0.16196148))))
(assert (= B_x_2_2 (+ (* (- 0.16923249) B_o_1_0) (* 0.49686074 B_o_1_1) (* 0.8652662 B_o_1_2) (* 0.08620654 B_o_1_3) 0.07103808)))
(assert (<= B_x_2_0 B_o_0_3_0))
(assert (<= B_x_2_1 B_o_0_3_0))
(assert (<= B_o_0_3_0 (+ B_x_2_0 (* 38.389211452076914 B_B_o_0_3_0_d_3_0))))
(assert (<= B_o_0_3_0 (+ B_x_2_1 38.389211452076914 (- (* 38.389211452076914 B_B_o_0_3_0_d_3_0)))))
(assert (<= B_o_0_3_0 B_o_1_3_0))
(assert (<= B_x_2_2 B_o_1_3_0))
(assert (<= B_o_1_3_0 (+ B_o_0_3_0 (* 20.16095498845937 B_B_o_1_3_0_d_3_0))))
(assert (<= B_o_1_3_0 (+ B_x_2_2 20.16095498845937 (- (* 20.16095498845937 B_B_o_1_3_0_d_3_0)))))
(assert (= B_x_3_0 (+ B_x_2_0 (- B_o_1_3_0))))
(assert (= B_x_3_1 (+ B_x_2_1 (- B_o_1_3_0))))
(assert (= B_x_3_2 (+ B_x_2_2 (- B_o_1_3_0))))
(assert (< B_x_3_0 (* 28.34441834610005 B_o_3_0)))
(assert (<= (+ (- 58.55016644053629) (- (* (- 58.55016644053629) B_o_3_0))) B_x_3_0))
(assert (< B_x_3_1 (* 22.87959757856124 B_o_3_1)))
(assert (<= (+ (- 29.834018662682755) (- (* (- 29.834018662682755) B_o_3_1))) B_x_3_1))
(assert (< B_x_3_2 (* 26.373992834122973 B_o_3_2)))
(assert (<= (+ (- 28.34441833610005) (- (* (- 28.34441833610005) B_o_3_2))) B_x_3_2))
(assert (= E_x_0_0 (+ A_o_3_0 (- B_o_3_0))))
(assert (<= E_x_0_0 (* 1 E_dg_0_0)))
(assert (< (+ (- 1.00000001) (- (* (- 1.00000001) E_dg_0_0))) E_x_0_0))
(assert (<= (- E_x_0_0) (* 1 E_dl_0_0)))
(assert (< (+ (- 1.00000001) (- (* (- 1.00000001) E_dl_0_0))) (- E_x_0_0)))
(assert (= E_x_0_1 (+ A_o_3_1 (- B_o_3_1))))
(assert (<= E_x_0_1 (* 1 E_dg_0_1)))
(assert (< (+ (- 1.00000001) (- (* (- 1.00000001) E_dg_0_1))) E_x_0_1))
(assert (<= (- E_x_0_1) (* 1 E_dl_0_1)))
(assert (< (+ (- 1.00000001) (- (* (- 1.00000001) E_dl_0_1))) (- E_x_0_1)))
(assert (= E_x_0_2 (+ A_o_3_2 (- B_o_3_2))))
(assert (<= E_x_0_2 (* 1 E_dg_0_2)))
(assert (< (+ (- 1.00000001) (- (* (- 1.00000001) E_dg_0_2))) E_x_0_2))
(assert (<= (- E_x_0_2) (* 1 E_dl_0_2)))
(assert (< (+ (- 1.00000001) (- (* (- 1.00000001) E_dl_0_2))) (- E_x_0_2)))
(assert (<= 1 (+ E_dg_0_0 E_dl_0_0 E_dg_0_1 E_dl_0_1 E_dg_0_2 E_dl_0_2)))
(check-sat)
(get-model)